************************************************************************
file with basedata            : cr564_.bas
initial value random generator: 1403350370
************************************************************************
projects                      :  1
jobs (incl. supersource/sink ):  18
horizon                       :  133
RESOURCES
  - renewable                 :  5   R
  - nonrenewable              :  2   N
  - doubly constrained        :  0   D
************************************************************************
PROJECT INFORMATION:
pronr.  #jobs rel.date duedate tardcost  MPM-Time
    1     16      0       22        7       22
************************************************************************
PRECEDENCE RELATIONS:
jobnr.    #modes  #successors   successors
   1        1          3           2   3   4
   2        3          3           6  10  12
   3        3          2           6   8
   4        3          3           5   9  14
   5        3          3          11  12  13
   6        3          1           7
   7        3          2           9  11
   8        3          3          12  13  15
   9        3          1          13
  10        3          2          11  17
  11        3          2          15  16
  12        3          2          16  17
  13        3          1          16
  14        3          2          15  17
  15        3          1          18
  16        3          1          18
  17        3          1          18
  18        1          0        
************************************************************************
REQUESTS/DURATIONS:
jobnr. mode duration  R 1  R 2  R 3  R 4  R 5  N 1  N 2
------------------------------------------------------------------------
  1      1     0       0    0    0    0    0    0    0
  2      1     4       7    2    8    2    6    9    8
         2     5       3    2    7    2    6    5    5
         3     6       3    2    5    2    3    2    2
  3      1     2       2    3    7    6    4    5    8
         2    10       2    2    7    1    2    5    5
         3    10       2    3    7    2    2    5    4
  4      1     4       6    9    3    9    6    7    7
         2     5       4    6    1    8    6    6    5
         3     5       4    8    1    9    6    7    3
  5      1     8       6    6    7    7    8    6    9
         2     8       7    6    6    7   10    6    9
         3    10       5    5    5    7    7    5    5
  6      1     2       5    7    3    9    7    8    3
         2     9       4    6    3    8    6    5    3
         3    10       4    6    3    8    6    3    3
  7      1     2       5    6   10    7    2    9    3
         2     4       2    5    8    6    2    6    3
         3     7       1    2    6    6    2    5    3
  8      1     1       7    8    3    6    6    6    6
         2     8       7    6    2    6    4    3    5
         3     9       7    3    2    2    3    1    3
  9      1     4       9    7    9    8    4    7    8
         2     4      10    9    8    8    4    8    9
         3     7       8    2    5    8    2    7    7
 10      1     6       5    3    6    9    6    5    7
         2     8       3    3    6    8    6    3    4
         3     8       3    1    5    9    4    3    6
 11      1     8       9    3    6    6    5    8    8
         2     8      10    4    7   10    8    5    9
         3    10       9    1    5    2    4    1    8
 12      1     3       7    2    6   10    7    2    8
         2     6       4    2    4    5    7    2    6
         3     8       2    1    3    4    6    1    6
 13      1     1       8    4   10    9    8    7    6
         2     2       6    4   10    9    8    6    6
         3     5       3    4   10    9    7    6    5
 14      1     4       5    8    9    3    4   10    6
         2     5       5    7    7    3    3    7    3
         3     9       4    7    1    1    2    7    1
 15      1     1       9   10    6   10    7    4    5
         2     5       6    5    5    7    7    3    3
         3     9       4    2    3    7    6    3    2
 16      1     1       9    4   10   10    9    8    6
         2     7       9    3    7   10    8    6    5
         3    10       8    3    4    9    8    5    4
 17      1     7       7    9    9    9    8    7    7
         2     9       5    7    5    6    7    6    5
         3    10       3    6    5    2    7    5    5
 18      1     0       0    0    0    0    0    0    0
************************************************************************
RESOURCEAVAILABILITIES:
  R 1  R 2  R 3  R 4  R 5  N 1  N 2
   25   24   32   29   27  109  107
************************************************************************
